SYSTEM=C

NWRITE=2
ISTART=0
ICHARG=2

ENCUT=600
ISYM=2 # (default)

ALGO=Normal
PREC=Accurate
LREAL=.FALSE.

Electronic steps
NELM=60
NELMIN=6
EDIFF=1.0E-6

Ionic steps
NSW=0
ISIF=0
IBRION=-1
EDIFFG=-0.00001

DOS related values:
ISMEAR=0 
SIGMA=0.05

LWAVE=.FALSE.
LCHARG=.FALSE.

ADDGRID=.TRUE.
