# Basic setup:
ISTART = 1
ICHARG = 11  
ISPIN = 1

# Accuracy controls:
ENCUT  =  600        (Cut-off energy for plane wave basis set, in eV)
ISYM=0

 
Electronic steps
ALGO = Normal
PREC=Accurate
LREAL=.FALSE.

NELM = 60
NELMIN=6
EDIFF = 1E-06

ISMEAR = 0
SIGMA = 0.05

Ionic steps
NSW=0
IBRION=-1
EDIFFG=-0.00001
POTIM=0.2
ISIF=2

# Output control:
LCHARG = .FALSE. 
LWAVE = .FALSE.
LELF = .FALSE.
LVTOT = .TRUE.
# LORBIT = 11
