C1
1.0
        0.0000002114         1.8335499756         1.8335498698
        1.8335499756         0.0000001057         1.8335498698
        1.8335499756         1.8335498698         0.0000000000
    C
    2
Direct
     0.125000000         0.125000000         0.125000000
     0.875000000         0.875000000         0.875000000
